c NeuroCodeBench 2.0 CNF formula with verdict Unsat
p cnf 8 38
1 -2 8 -3 -4 -5 0
-1 -3 -8 -4 7 -6 0
-1 -3 -8 4 -2 -5 0
-1 3 -5 -2 7 -4 0
-1 3 5 6 7 0
1 -2 8 3 7 0
-1 -3 -8 -4 -7 -2 0
1 -2 -8 -6 0
-1 -3 8 -7 0
1 -2 -8 6 0
1 2 5 4 0
-1 3 5 -6 8 0
-1 -3 -8 4 -2 5 -6 0
1 2 5 -4 8 -3 0
1 2 5 -4 8 3 0
-1 -3 8 7 6 4 2 0
-1 -3 -8 4 -2 5 6 0
-1 3 -5 -2 7 4 0
-1 3 -5 -2 -7 0
-1 3 5 -6 -8 0
-1 -3 -8 -4 7 6 -5 2 0
1 -2 8 3 -7 0
-1 -3 -8 4 2 0
1 -2 8 -3 -4 5 0
1 -2 8 -3 4 0
-1 3 5 6 -7 0
-1 3 -5 2 0
-1 -3 8 7 6 4 -2 0
1 2 -5 4 0
-1 -3 -8 -4 7 6 5 0
-1 -3 8 7 -6 0
1 2 -5 -4 -8 -6 0
-1 -3 -8 -4 -7 2 0
-1 -3 8 7 6 -4 0
1 2 -5 -4 8 0
1 2 -5 -4 -8 6 0
-1 -3 -8 -4 7 6 -5 -2 0
1 2 5 -4 -8 0
